VACCINE = Vaccine(1..3);
m = 24;
age = [AGED, AGED, SENIOR, BABY, AGED, AGED, AGED, YOUTH, BABY, YOUTH, ANCIENT, AGED, AGED, ANCIENT, ANCIENT, ADULT, YOUTH, ADULT, BABY, ADULT, SENIOR, CHILD, SENIOR, BABY];
gender = [MALE, FEMALE, FEMALE, MALE, MALE, FEMALE, OTHER, MALE, MALE, MALE, FEMALE, FEMALE, FEMALE, OTHER, FEMALE, MALE, MALE, MALE, OTHER, FEMALE, MALE, FEMALE, MALE, OTHER];
health = [COMPROMISED, GOOD, POOR, POOR, POOR, POOR, GOOD, COMPROMISED, COMPROMISED, POOR, POOR, COMPROMISED, GOOD, POOR, POOR, GOOD, COMPROMISED, GOOD, GOOD, COMPROMISED, POOR, COMPROMISED, GOOD, COMPROMISED];
exposure = [HIGH, AVERAGE, AVERAGE, EXTREME, HIGH, AVERAGE, AVERAGE, EXTREME, HIGH, AVERAGE, LOW, LOW, AVERAGE, LOW, LOW, LOW, LOW, HIGH, EXTREME, EXTREME, LOW, AVERAGE, AVERAGE, LOW];
size = [10, 8, 10, 8, 8, 10, 9, 7, 9, 9, 12, 9, 10, 9, 7, 11, 7, 12, 12, 8, 10, 9, 9, 9];
minsize = 7;
age_group_min = [0, 0, 0, 0, 1, 0, 0];
age_group_max = [20, 19, 11, 20, 18, 17, 18];
max_people_diff = 56;
max_share_vaccines = 3;
health_information = {10, 11, 16};
exposure_information = {8, 10, 12, 16};